basic/instance3x3_a.param
language ESSENCE' 1.0

letting initial_grid be [
[1,0,0],
[0,0,0],
[0,0,0]]
