basic/instance3x3_a.param.solution
language ESSENCE' 1.0
$ Minion SolverNodes: 9
$ Minion SolverTotalTime: 0.05238
$ Minion SolverTimeOut: 0
$ Savile Row TotalTime: 0.309
letting cells be [[1, 2], 
[1, 3], 
[2, 3], 
[3, 3], 
[3, 2], 
[3, 1], 
[2, 1], 
[2, 2]]
